data/lp_files/q3/102_1.lp
\ Model foo
\ LP format - for model browsing. Use MPS format to capture full model detail.
Minimize
  z
Subject To
 allocateEach[1]: x[1,1] + x[2,1] + x[3,1] + x[4,1] + x[5,1] + x[6,1] = 1
 allocateEach[2]: x[1,2] + x[2,2] + x[3,2] + x[4,2] + x[5,2] + x[6,2] = 1
 allocateAllCash: cashProportion[1] + cashProportion[2] + cashProportion[3]
   + cashProportion[4] + cashProportion[5] + cashProportion[6] = 1
 findWorstP[1,2]: z + 0.1157273463719477 cashProportion[1]
   - 0.1157273463719477 cashProportion[2] + 0.0318250202522856 x[1,1]
   + 0.8524476333757668 x[1,2] - 0.0318250202522856 x[2,1]
   - 0.8524476333757668 x[2,2] >= 0
 findWorstP[1,3]: z + 0.1157273463719477 cashProportion[1]
   - 0.1157273463719477 cashProportion[3] + 0.0318250202522856 x[1,1]
   + 0.8524476333757668 x[1,2] - 0.0318250202522856 x[3,1]
   - 0.8524476333757668 x[3,2] >= 0
 findWorstP[1,4]: z + 0.1157273463719477 cashProportion[1]
   - 0.1157273463719477 cashProportion[4] + 0.0318250202522856 x[1,1]
   + 0.8524476333757668 x[1,2] - 0.0318250202522856 x[4,1]
   - 0.8524476333757668 x[4,2] >= 0
 findWorstP[1,5]: z + 0.1157273463719477 cashProportion[1]
   - 0.1157273463719477 cashProportion[5] + 0.0318250202522856 x[1,1]
   + 0.8524476333757668 x[1,2] - 0.0318250202522856 x[5,1]
   - 0.8524476333757668 x[5,2] >= 0
 findWorstP[1,6]: z + 0.1157273463719477 cashProportion[1]
   - 0.1157273463719477 cashProportion[6] + 0.0318250202522856 x[1,1]
   + 0.8524476333757668 x[1,2] - 0.0318250202522856 x[6,1]
   - 0.8524476333757668 x[6,2] >= 0
 findWorstP[2,1]: z - 0.0708566569829236 cashProportion[1]
   + 0.0708566569829236 cashProportion[2] - 0.6666194288953448 x[1,1]
   - 0.2625239141217318 x[1,2] + 0.6666194288953448 x[2,1]
   + 0.2625239141217318 x[2,2] >= 0
 findWorstP[2,3]: z + 0.0708566569829236 cashProportion[2]
   - 0.0708566569829236 cashProportion[3] + 0.6666194288953448 x[2,1]
   + 0.2625239141217318 x[2,2] - 0.6666194288953448 x[3,1]
   - 0.2625239141217318 x[3,2] >= 0
 findWorstP[2,4]: z + 0.0708566569829236 cashProportion[2]
   - 0.0708566569829236 cashProportion[4] + 0.6666194288953448 x[2,1]
   + 0.2625239141217318 x[2,2] - 0.6666194288953448 x[4,1]
   - 0.2625239141217318 x[4,2] >= 0
 findWorstP[2,5]: z + 0.0708566569829236 cashProportion[2]
   - 0.0708566569829236 cashProportion[5] + 0.6666194288953448 x[2,1]
   + 0.2625239141217318 x[2,2] - 0.6666194288953448 x[5,1]
   - 0.2625239141217318 x[5,2] >= 0
 findWorstP[2,6]: z + 0.0708566569829236 cashProportion[2]
   - 0.0708566569829236 cashProportion[6] + 0.6666194288953448 x[2,1]
   + 0.2625239141217318 x[2,2] - 0.6666194288953448 x[6,1]
   - 0.2625239141217318 x[6,2] >= 0
 findWorstP[3,1]: z - 0.123334977799704 cashProportion[1]
   + 0.123334977799704 cashProportion[3] - 0.3263443512580168 x[1,1]
   - 0.5503206709422792 x[1,2] + 0.3263443512580168 x[3,1]
   + 0.5503206709422792 x[3,2] >= 0
 findWorstP[3,2]: z - 0.123334977799704 cashProportion[2]
   + 0.123334977799704 cashProportion[3] - 0.3263443512580168 x[2,1]
   - 0.5503206709422792 x[2,2] + 0.3263443512580168 x[3,1]
   + 0.5503206709422792 x[3,2] >= 0
 findWorstP[3,4]: z + 0.123334977799704 cashProportion[3]
   - 0.123334977799704 cashProportion[4] + 0.3263443512580168 x[3,1]
   + 0.5503206709422792 x[3,2] - 0.3263443512580168 x[4,1]
   - 0.5503206709422792 x[4,2] >= 0
 findWorstP[3,5]: z + 0.123334977799704 cashProportion[3]
   - 0.123334977799704 cashProportion[5] + 0.3263443512580168 x[3,1]
   + 0.5503206709422792 x[3,2] - 0.3263443512580168 x[5,1]
   - 0.5503206709422792 x[5,2] >= 0
 findWorstP[3,6]: z + 0.123334977799704 cashProportion[3]
   - 0.123334977799704 cashProportion[6] + 0.3263443512580168 x[3,1]
   + 0.5503206709422792 x[3,2] - 0.3263443512580168 x[6,1]
   - 0.5503206709422792 x[6,2] >= 0
 findWorstP[4,1]: z - 0.426075841499787 cashProportion[1]
   + 0.426075841499787 cashProportion[4] - 0.1346399659139327 x[1,1]
   - 0.4392841925862804 x[1,2] + 0.1346399659139327 x[4,1]
   + 0.4392841925862804 x[4,2] >= 0
 findWorstP[4,2]: z - 0.426075841499787 cashProportion[2]
   + 0.426075841499787 cashProportion[4] - 0.1346399659139327 x[2,1]
   - 0.4392841925862804 x[2,2] + 0.1346399659139327 x[4,1]
   + 0.4392841925862804 x[4,2] >= 0
 findWorstP[4,3]: z - 0.426075841499787 cashProportion[3]
   + 0.426075841499787 cashProportion[4] - 0.1346399659139327 x[3,1]
   - 0.4392841925862804 x[3,2] + 0.1346399659139327 x[4,1]
   + 0.4392841925862804 x[4,2] >= 0
 findWorstP[4,5]: z + 0.426075841499787 cashProportion[4]
   - 0.426075841499787 cashProportion[5] + 0.1346399659139327 x[4,1]
   + 0.4392841925862804 x[4,2] - 0.1346399659139327 x[5,1]
   - 0.4392841925862804 x[5,2] >= 0
 findWorstP[4,6]: z + 0.426075841499787 cashProportion[4]
   - 0.426075841499787 cashProportion[6] + 0.1346399659139327 x[4,1]
   + 0.4392841925862804 x[4,2] - 0.1346399659139327 x[6,1]
   - 0.4392841925862804 x[6,2] >= 0
 findWorstP[5,1]: z - 0.2718868950516585 cashProportion[1]
   + 0.2718868950516585 cashProportion[5] - 0.00706905927134312 x[1,1]
   - 0.7210440456769983 x[1,2] + 0.00706905927134312 x[5,1]
   + 0.7210440456769983 x[5,2] >= 0
 findWorstP[5,2]: z - 0.2718868950516585 cashProportion[2]
   + 0.2718868950516585 cashProportion[5] - 0.00706905927134312 x[2,1]
   - 0.7210440456769983 x[2,2] + 0.00706905927134312 x[5,1]
   + 0.7210440456769983 x[5,2] >= 0
 findWorstP[5,3]: z - 0.2718868950516585 cashProportion[3]
   + 0.2718868950516585 cashProportion[5] - 0.00706905927134312 x[3,1]
   - 0.7210440456769983 x[3,2] + 0.00706905927134312 x[5,1]
   + 0.7210440456769983 x[5,2] >= 0
 findWorstP[5,4]: z - 0.2718868950516585 cashProportion[4]
   + 0.2718868950516585 cashProportion[5] - 0.00706905927134312 x[4,1]
   - 0.7210440456769983 x[4,2] + 0.00706905927134312 x[5,1]
   + 0.7210440456769983 x[5,2] >= 0
 findWorstP[5,6]: z + 0.2718868950516585 cashProportion[5]
   - 0.2718868950516585 cashProportion[6] + 0.00706905927134312 x[5,1]
   + 0.7210440456769983 x[5,2] - 0.00706905927134312 x[6,1]
   - 0.7210440456769983 x[6,2] >= 0
 findWorstP[6,1]: z - 0.0949757811758002 cashProportion[1]
   + 0.0949757811758002 cashProportion[6] - 0.5492449425396523 x[1,1]
   - 0.3557792762845474 x[1,2] + 0.5492449425396523 x[6,1]
   + 0.3557792762845474 x[6,2] >= 0
 findWorstP[6,2]: z - 0.0949757811758002 cashProportion[2]
   + 0.0949757811758002 cashProportion[6] - 0.5492449425396523 x[2,1]
   - 0.3557792762845474 x[2,2] + 0.5492449425396523 x[6,1]
   + 0.3557792762845474 x[6,2] >= 0
 findWorstP[6,3]: z - 0.0949757811758002 cashProportion[3]
   + 0.0949757811758002 cashProportion[6] - 0.5492449425396523 x[3,1]
   - 0.3557792762845474 x[3,2] + 0.5492449425396523 x[6,1]
   + 0.3557792762845474 x[6,2] >= 0
 findWorstP[6,4]: z - 0.0949757811758002 cashProportion[4]
   + 0.0949757811758002 cashProportion[6] - 0.5492449425396523 x[4,1]
   - 0.3557792762845474 x[4,2] + 0.5492449425396523 x[6,1]
   + 0.3557792762845474 x[6,2] >= 0
 findWorstP[6,5]: z - 0.0949757811758002 cashProportion[5]
   + 0.0949757811758002 cashProportion[6] - 0.5492449425396523 x[5,1]
   - 0.3557792762845474 x[5,2] + 0.5492449425396523 x[6,1]
   + 0.3557792762845474 x[6,2] >= 0
Bounds
 z <= 1
 -infinity <= cashProportion[1] <= 1
 -infinity <= cashProportion[2] <= 1
 -infinity <= cashProportion[3] <= 1
 -infinity <= cashProportion[4] <= 1
 -infinity <= cashProportion[5] <= 1
 -infinity <= cashProportion[6] <= 1
Binaries
 x[1,1] x[1,2] x[2,1] x[2,2] x[3,1] x[3,2] x[4,1] x[4,2] x[5,1] x[5,2]
 x[6,1] x[6,2]
End
