data/mps_files/pEFS/102_1.mps
NAME foo
ROWS
 N  OBJ
 E  allocateEach[1]
 E  allocateEach[2]
 E  allocateAllCash
 G  findWorstP[1,2]
 G  findWorstP[1,3]
 G  findWorstP[1,4]
 G  findWorstP[1,5]
 G  findWorstP[1,6]
 G  findWorstP[2,1]
 G  findWorstP[2,3]
 G  findWorstP[2,4]
 G  findWorstP[2,5]
 G  findWorstP[2,6]
 G  findWorstP[3,1]
 G  findWorstP[3,2]
 G  findWorstP[3,4]
 G  findWorstP[3,5]
 G  findWorstP[3,6]
 G  findWorstP[4,1]
 G  findWorstP[4,2]
 G  findWorstP[4,3]
 G  findWorstP[4,5]
 G  findWorstP[4,6]
 G  findWorstP[5,1]
 G  findWorstP[5,2]
 G  findWorstP[5,3]
 G  findWorstP[5,4]
 G  findWorstP[5,6]
 G  findWorstP[6,1]
 G  findWorstP[6,2]
 G  findWorstP[6,3]
 G  findWorstP[6,4]
 G  findWorstP[6,5]
COLUMNS
    z         OBJ       1
    z         findWorstP[1,2]  1
    z         findWorstP[1,3]  1
    z         findWorstP[1,4]  1
    z         findWorstP[1,5]  1
    z         findWorstP[1,6]  1
    z         findWorstP[2,1]  1
    z         findWorstP[2,3]  1
    z         findWorstP[2,4]  1
    z         findWorstP[2,5]  1
    z         findWorstP[2,6]  1
    z         findWorstP[3,1]  1
    z         findWorstP[3,2]  1
    z         findWorstP[3,4]  1
    z         findWorstP[3,5]  1
    z         findWorstP[3,6]  1
    z         findWorstP[4,1]  1
    z         findWorstP[4,2]  1
    z         findWorstP[4,3]  1
    z         findWorstP[4,5]  1
    z         findWorstP[4,6]  1
    z         findWorstP[5,1]  1
    z         findWorstP[5,2]  1
    z         findWorstP[5,3]  1
    z         findWorstP[5,4]  1
    z         findWorstP[5,6]  1
    z         findWorstP[6,1]  1
    z         findWorstP[6,2]  1
    z         findWorstP[6,3]  1
    z         findWorstP[6,4]  1
    z         findWorstP[6,5]  1
    cashProportion[1]  allocateAllCash  1
    cashProportion[1]  findWorstP[1,2]  1.1572734637194770e-01
    cashProportion[1]  findWorstP[1,3]  1.1572734637194770e-01
    cashProportion[1]  findWorstP[1,4]  1.1572734637194770e-01
    cashProportion[1]  findWorstP[1,5]  1.1572734637194770e-01
    cashProportion[1]  findWorstP[1,6]  1.1572734637194770e-01
    cashProportion[1]  findWorstP[2,1]  -7.0856656982923552e-02
    cashProportion[1]  findWorstP[3,1]  -0.123334977799704
    cashProportion[1]  findWorstP[4,1]  -0.426075841499787
    cashProportion[1]  findWorstP[5,1]  -2.7188689505165853e-01
    cashProportion[1]  findWorstP[6,1]  -9.4975781175800161e-02
    cashProportion[2]  allocateAllCash  1
    cashProportion[2]  findWorstP[1,2]  -1.1572734637194770e-01
    cashProportion[2]  findWorstP[2,1]  7.0856656982923552e-02
    cashProportion[2]  findWorstP[2,3]  7.0856656982923552e-02
    cashProportion[2]  findWorstP[2,4]  7.0856656982923552e-02
    cashProportion[2]  findWorstP[2,5]  7.0856656982923552e-02
    cashProportion[2]  findWorstP[2,6]  7.0856656982923552e-02
    cashProportion[2]  findWorstP[3,2]  -0.123334977799704
    cashProportion[2]  findWorstP[4,2]  -0.426075841499787
    cashProportion[2]  findWorstP[5,2]  -2.7188689505165853e-01
    cashProportion[2]  findWorstP[6,2]  -9.4975781175800161e-02
    cashProportion[3]  allocateAllCash  1
    cashProportion[3]  findWorstP[1,3]  -1.1572734637194770e-01
    cashProportion[3]  findWorstP[2,3]  -7.0856656982923552e-02
    cashProportion[3]  findWorstP[3,1]  0.123334977799704
    cashProportion[3]  findWorstP[3,2]  0.123334977799704
    cashProportion[3]  findWorstP[3,4]  0.123334977799704
    cashProportion[3]  findWorstP[3,5]  0.123334977799704
    cashProportion[3]  findWorstP[3,6]  0.123334977799704
    cashProportion[3]  findWorstP[4,3]  -0.426075841499787
    cashProportion[3]  findWorstP[5,3]  -2.7188689505165853e-01
    cashProportion[3]  findWorstP[6,3]  -9.4975781175800161e-02
    cashProportion[4]  allocateAllCash  1
    cashProportion[4]  findWorstP[1,4]  -1.1572734637194770e-01
    cashProportion[4]  findWorstP[2,4]  -7.0856656982923552e-02
    cashProportion[4]  findWorstP[3,4]  -0.123334977799704
    cashProportion[4]  findWorstP[4,1]  0.426075841499787
    cashProportion[4]  findWorstP[4,2]  0.426075841499787
    cashProportion[4]  findWorstP[4,3]  0.426075841499787
    cashProportion[4]  findWorstP[4,5]  0.426075841499787
    cashProportion[4]  findWorstP[4,6]  0.426075841499787
    cashProportion[4]  findWorstP[5,4]  -2.7188689505165853e-01
    cashProportion[4]  findWorstP[6,4]  -9.4975781175800161e-02
    cashProportion[5]  allocateAllCash  1
    cashProportion[5]  findWorstP[1,5]  -1.1572734637194770e-01
    cashProportion[5]  findWorstP[2,5]  -7.0856656982923552e-02
    cashProportion[5]  findWorstP[3,5]  -0.123334977799704
    cashProportion[5]  findWorstP[4,5]  -0.426075841499787
    cashProportion[5]  findWorstP[5,1]  2.7188689505165853e-01
    cashProportion[5]  findWorstP[5,2]  2.7188689505165853e-01
    cashProportion[5]  findWorstP[5,3]  2.7188689505165853e-01
    cashProportion[5]  findWorstP[5,4]  2.7188689505165853e-01
    cashProportion[5]  findWorstP[5,6]  2.7188689505165853e-01
    cashProportion[5]  findWorstP[6,5]  -9.4975781175800161e-02
    cashProportion[6]  allocateAllCash  1
    cashProportion[6]  findWorstP[1,6]  -1.1572734637194770e-01
    cashProportion[6]  findWorstP[2,6]  -7.0856656982923552e-02
    cashProportion[6]  findWorstP[3,6]  -0.123334977799704
    cashProportion[6]  findWorstP[4,6]  -0.426075841499787
    cashProportion[6]  findWorstP[5,6]  -2.7188689505165853e-01
    cashProportion[6]  findWorstP[6,1]  9.4975781175800161e-02
    cashProportion[6]  findWorstP[6,2]  9.4975781175800161e-02
    cashProportion[6]  findWorstP[6,3]  9.4975781175800161e-02
    cashProportion[6]  findWorstP[6,4]  9.4975781175800161e-02
    cashProportion[6]  findWorstP[6,5]  9.4975781175800161e-02
    MARKER    'MARKER'                 'INTORG'
    x[1,1]    allocateEach[1]  1
    x[1,1]    findWorstP[1,2]  3.1825020252285618e-02
    x[1,1]    findWorstP[1,3]  3.1825020252285618e-02
    x[1,1]    findWorstP[1,4]  3.1825020252285618e-02
    x[1,1]    findWorstP[1,5]  3.1825020252285618e-02
    x[1,1]    findWorstP[1,6]  3.1825020252285618e-02
    x[1,1]    findWorstP[2,1]  -6.6661942889534476e-01
    x[1,1]    findWorstP[3,1]  -3.2634435125801675e-01
    x[1,1]    findWorstP[4,1]  -1.3463996591393271e-01
    x[1,1]    findWorstP[5,1]  -7.0690592713431206e-03
    x[1,1]    findWorstP[6,1]  -5.4924494253965228e-01
    x[1,2]    allocateEach[2]  1
    x[1,2]    findWorstP[1,2]  8.5244763337576679e-01
    x[1,2]    findWorstP[1,3]  8.5244763337576679e-01
    x[1,2]    findWorstP[1,4]  8.5244763337576679e-01
    x[1,2]    findWorstP[1,5]  8.5244763337576679e-01
    x[1,2]    findWorstP[1,6]  8.5244763337576679e-01
    x[1,2]    findWorstP[2,1]  -2.6252391412173176e-01
    x[1,2]    findWorstP[3,1]  -5.5032067094227921e-01
    x[1,2]    findWorstP[4,1]  -4.3928419258628038e-01
    x[1,2]    findWorstP[5,1]  -7.2104404567699831e-01
    x[1,2]    findWorstP[6,1]  -3.5577927628454736e-01
    x[2,1]    allocateEach[1]  1
    x[2,1]    findWorstP[1,2]  -3.1825020252285618e-02
    x[2,1]    findWorstP[2,1]  6.6661942889534476e-01
    x[2,1]    findWorstP[2,3]  6.6661942889534476e-01
    x[2,1]    findWorstP[2,4]  6.6661942889534476e-01
    x[2,1]    findWorstP[2,5]  6.6661942889534476e-01
    x[2,1]    findWorstP[2,6]  6.6661942889534476e-01
    x[2,1]    findWorstP[3,2]  -3.2634435125801675e-01
    x[2,1]    findWorstP[4,2]  -1.3463996591393271e-01
    x[2,1]    findWorstP[5,2]  -7.0690592713431206e-03
    x[2,1]    findWorstP[6,2]  -5.4924494253965228e-01
    x[2,2]    allocateEach[2]  1
    x[2,2]    findWorstP[1,2]  -8.5244763337576679e-01
    x[2,2]    findWorstP[2,1]  2.6252391412173176e-01
    x[2,2]    findWorstP[2,3]  2.6252391412173176e-01
    x[2,2]    findWorstP[2,4]  2.6252391412173176e-01
    x[2,2]    findWorstP[2,5]  2.6252391412173176e-01
    x[2,2]    findWorstP[2,6]  2.6252391412173176e-01
    x[2,2]    findWorstP[3,2]  -5.5032067094227921e-01
    x[2,2]    findWorstP[4,2]  -4.3928419258628038e-01
    x[2,2]    findWorstP[5,2]  -7.2104404567699831e-01
    x[2,2]    findWorstP[6,2]  -3.5577927628454736e-01
    x[3,1]    allocateEach[1]  1
    x[3,1]    findWorstP[1,3]  -3.1825020252285618e-02
    x[3,1]    findWorstP[2,3]  -6.6661942889534476e-01
    x[3,1]    findWorstP[3,1]  3.2634435125801675e-01
    x[3,1]    findWorstP[3,2]  3.2634435125801675e-01
    x[3,1]    findWorstP[3,4]  3.2634435125801675e-01
    x[3,1]    findWorstP[3,5]  3.2634435125801675e-01
    x[3,1]    findWorstP[3,6]  3.2634435125801675e-01
    x[3,1]    findWorstP[4,3]  -1.3463996591393271e-01
    x[3,1]    findWorstP[5,3]  -7.0690592713431206e-03
    x[3,1]    findWorstP[6,3]  -5.4924494253965228e-01
    x[3,2]    allocateEach[2]  1
    x[3,2]    findWorstP[1,3]  -8.5244763337576679e-01
    x[3,2]    findWorstP[2,3]  -2.6252391412173176e-01
    x[3,2]    findWorstP[3,1]  5.5032067094227921e-01
    x[3,2]    findWorstP[3,2]  5.5032067094227921e-01
    x[3,2]    findWorstP[3,4]  5.5032067094227921e-01
    x[3,2]    findWorstP[3,5]  5.5032067094227921e-01
    x[3,2]    findWorstP[3,6]  5.5032067094227921e-01
    x[3,2]    findWorstP[4,3]  -4.3928419258628038e-01
    x[3,2]    findWorstP[5,3]  -7.2104404567699831e-01
    x[3,2]    findWorstP[6,3]  -3.5577927628454736e-01
    x[4,1]    allocateEach[1]  1
    x[4,1]    findWorstP[1,4]  -3.1825020252285618e-02
    x[4,1]    findWorstP[2,4]  -6.6661942889534476e-01
    x[4,1]    findWorstP[3,4]  -3.2634435125801675e-01
    x[4,1]    findWorstP[4,1]  1.3463996591393271e-01
    x[4,1]    findWorstP[4,2]  1.3463996591393271e-01
    x[4,1]    findWorstP[4,3]  1.3463996591393271e-01
    x[4,1]    findWorstP[4,5]  1.3463996591393271e-01
    x[4,1]    findWorstP[4,6]  1.3463996591393271e-01
    x[4,1]    findWorstP[5,4]  -7.0690592713431206e-03
    x[4,1]    findWorstP[6,4]  -5.4924494253965228e-01
    x[4,2]    allocateEach[2]  1
    x[4,2]    findWorstP[1,4]  -8.5244763337576679e-01
    x[4,2]    findWorstP[2,4]  -2.6252391412173176e-01
    x[4,2]    findWorstP[3,4]  -5.5032067094227921e-01
    x[4,2]    findWorstP[4,1]  4.3928419258628038e-01
    x[4,2]    findWorstP[4,2]  4.3928419258628038e-01
    x[4,2]    findWorstP[4,3]  4.3928419258628038e-01
    x[4,2]    findWorstP[4,5]  4.3928419258628038e-01
    x[4,2]    findWorstP[4,6]  4.3928419258628038e-01
    x[4,2]    findWorstP[5,4]  -7.2104404567699831e-01
    x[4,2]    findWorstP[6,4]  -3.5577927628454736e-01
    x[5,1]    allocateEach[1]  1
    x[5,1]    findWorstP[1,5]  -3.1825020252285618e-02
    x[5,1]    findWorstP[2,5]  -6.6661942889534476e-01
    x[5,1]    findWorstP[3,5]  -3.2634435125801675e-01
    x[5,1]    findWorstP[4,5]  -1.3463996591393271e-01
    x[5,1]    findWorstP[5,1]  7.0690592713431206e-03
    x[5,1]    findWorstP[5,2]  7.0690592713431206e-03
    x[5,1]    findWorstP[5,3]  7.0690592713431206e-03
    x[5,1]    findWorstP[5,4]  7.0690592713431206e-03
    x[5,1]    findWorstP[5,6]  7.0690592713431206e-03
    x[5,1]    findWorstP[6,5]  -5.4924494253965228e-01
    x[5,2]    allocateEach[2]  1
    x[5,2]    findWorstP[1,5]  -8.5244763337576679e-01
    x[5,2]    findWorstP[2,5]  -2.6252391412173176e-01
    x[5,2]    findWorstP[3,5]  -5.5032067094227921e-01
    x[5,2]    findWorstP[4,5]  -4.3928419258628038e-01
    x[5,2]    findWorstP[5,1]  7.2104404567699831e-01
    x[5,2]    findWorstP[5,2]  7.2104404567699831e-01
    x[5,2]    findWorstP[5,3]  7.2104404567699831e-01
    x[5,2]    findWorstP[5,4]  7.2104404567699831e-01
    x[5,2]    findWorstP[5,6]  7.2104404567699831e-01
    x[5,2]    findWorstP[6,5]  -3.5577927628454736e-01
    x[6,1]    allocateEach[1]  1
    x[6,1]    findWorstP[1,6]  -3.1825020252285618e-02
    x[6,1]    findWorstP[2,6]  -6.6661942889534476e-01
    x[6,1]    findWorstP[3,6]  -3.2634435125801675e-01
    x[6,1]    findWorstP[4,6]  -1.3463996591393271e-01
    x[6,1]    findWorstP[5,6]  -7.0690592713431206e-03
    x[6,1]    findWorstP[6,1]  5.4924494253965228e-01
    x[6,1]    findWorstP[6,2]  5.4924494253965228e-01
    x[6,1]    findWorstP[6,3]  5.4924494253965228e-01
    x[6,1]    findWorstP[6,4]  5.4924494253965228e-01
    x[6,1]    findWorstP[6,5]  5.4924494253965228e-01
    x[6,2]    allocateEach[2]  1
    x[6,2]    findWorstP[1,6]  -8.5244763337576679e-01
    x[6,2]    findWorstP[2,6]  -2.6252391412173176e-01
    x[6,2]    findWorstP[3,6]  -5.5032067094227921e-01
    x[6,2]    findWorstP[4,6]  -4.3928419258628038e-01
    x[6,2]    findWorstP[5,6]  -7.2104404567699831e-01
    x[6,2]    findWorstP[6,1]  3.5577927628454736e-01
    x[6,2]    findWorstP[6,2]  3.5577927628454736e-01
    x[6,2]    findWorstP[6,3]  3.5577927628454736e-01
    x[6,2]    findWorstP[6,4]  3.5577927628454736e-01
    x[6,2]    findWorstP[6,5]  3.5577927628454736e-01
    MARKER    'MARKER'                 'INTEND'
RHS
    RHS1      allocateEach[1]  1
    RHS1      allocateEach[2]  1
    RHS1      allocateAllCash  1
BOUNDS
 UP BND1      z         1
 MI BND1      cashProportion[1]
 UP BND1      cashProportion[1]  1
 MI BND1      cashProportion[2]
 UP BND1      cashProportion[2]  1
 MI BND1      cashProportion[3]
 UP BND1      cashProportion[3]  1
 MI BND1      cashProportion[4]
 UP BND1      cashProportion[4]  1
 MI BND1      cashProportion[5]
 UP BND1      cashProportion[5]  1
 MI BND1      cashProportion[6]
 UP BND1      cashProportion[6]  1
 BV BND1      x[1,1]  
 BV BND1      x[1,2]  
 BV BND1      x[2,1]  
 BV BND1      x[2,2]  
 BV BND1      x[3,1]  
 BV BND1      x[3,2]  
 BV BND1      x[4,1]  
 BV BND1      x[4,2]  
 BV BND1      x[5,1]  
 BV BND1      x[5,2]  
 BV BND1      x[6,1]  
 BV BND1      x[6,2]  
ENDATA
